c solution = True
p edge 202 201
e 2 1 1
e 3 2 1
e 8 2 1
e 13 2 1
e 18 2 1
e 23 2 1
e 28 2 1
e 33 2 1
e 38 2 1
e 43 2 1
e 48 2 1
e 53 2 1
e 58 2 1
e 63 2 1
e 68 2 1
e 73 2 1
e 78 2 1
e 83 2 1
e 88 2 1
e 93 2 1
e 98 2 1
e 103 2 1
e 108 2 1
e 113 2 1
e 118 2 1
e 123 2 1
e 128 2 1
e 133 2 1
e 138 2 1
e 143 2 1
e 148 2 1
e 153 2 1
e 158 2 1
e 163 2 1
e 168 2 1
e 173 2 1
e 178 2 1
e 183 2 1
e 188 2 1
e 193 2 1
e 198 2 1
e 199 198 1
e 202 198 1
e 200 199 1
e 201 200 1
e 194 193 1
e 197 193 1
e 195 194 1
e 196 195 1
e 189 188 1
e 192 188 1
e 190 189 1
e 191 190 1
e 184 183 1
e 187 183 1
e 185 184 1
e 186 185 1
e 179 178 1
e 182 178 1
e 180 179 1
e 181 180 1
e 174 173 1
e 177 173 1
e 175 174 1
e 176 175 1
e 169 168 1
e 172 168 1
e 170 169 1
e 171 170 1
e 164 163 1
e 167 163 1
e 165 164 1
e 166 165 1
e 159 158 1
e 162 158 1
e 160 159 1
e 161 160 1
e 154 153 1
e 157 153 1
e 155 154 1
e 156 155 1
e 149 148 1
e 152 148 1
e 150 149 1
e 151 150 1
e 144 143 1
e 147 143 1
e 145 144 1
e 146 145 1
e 139 138 1
e 142 138 1
e 140 139 1
e 141 140 1
e 134 133 1
e 137 133 1
e 135 134 1
e 136 135 1
e 129 128 1
e 132 128 1
e 130 129 1
e 131 130 1
e 124 123 1
e 127 123 1
e 125 124 1
e 126 125 1
e 119 118 1
e 122 118 1
e 120 119 1
e 121 120 1
e 114 113 1
e 117 113 1
e 115 114 1
e 116 115 1
e 109 108 1
e 112 108 1
e 110 109 1
e 111 110 1
e 104 103 1
e 107 103 1
e 105 104 1
e 106 105 1
e 99 98 1
e 102 98 1
e 100 99 1
e 101 100 1
e 94 93 1
e 97 93 1
e 95 94 1
e 96 95 1
e 89 88 1
e 92 88 1
e 90 89 1
e 91 90 1
e 84 83 1
e 87 83 1
e 85 84 1
e 86 85 1
e 79 78 1
e 82 78 1
e 80 79 1
e 81 80 1
e 74 73 1
e 77 73 1
e 75 74 1
e 76 75 1
e 69 68 1
e 72 68 1
e 70 69 1
e 71 70 1
e 64 63 1
e 67 63 1
e 65 64 1
e 66 65 1
e 59 58 1
e 62 58 1
e 60 59 1
e 61 60 1
e 54 53 1
e 57 53 1
e 55 54 1
e 56 55 1
e 49 48 1
e 52 48 1
e 50 49 1
e 51 50 1
e 44 43 1
e 47 43 1
e 45 44 1
e 46 45 1
e 39 38 1
e 42 38 1
e 40 39 1
e 41 40 1
e 34 33 1
e 37 33 1
e 35 34 1
e 36 35 1
e 29 28 1
e 32 28 1
e 30 29 1
e 31 30 1
e 24 23 1
e 27 23 1
e 25 24 1
e 26 25 1
e 19 18 1
e 22 18 1
e 20 19 1
e 21 20 1
e 14 13 1
e 17 13 1
e 15 14 1
e 16 15 1
e 9 8 1
e 12 8 1
e 10 9 1
e 11 10 1
e 4 3 1
e 7 3 1
e 5 4 1
e 6 5 1
